DIMACS_lns/graph-1000-307.col
p edge 1000 1810
e 2 60
e 2 46
e 2 995
e 2 460
e 2 662
e 4 279
e 4 809
e 4 203
e 4 451
e 6 746
e 6 500
e 6 205
e 6 848
e 8 523
e 8 355
e 8 787
e 9 736
e 9 466
e 9 657
e 10 874
e 10 182
e 10 320
e 10 454
e 11 483
e 11 319
e 11 404
e 11 795
e 11 418
e 11 301
e 11 800
e 12 816
e 12 646
e 12 932
e 13 150
e 13 568
e 13 283
e 13 625
e 13 77
e 13 936
e 14 513
e 14 947
e 14 369
e 14 948
e 14 107
e 14 119
e 15 672
e 15 291
e 15 124
e 15 188
e 16 488
e 16 669
e 16 234
e 17 301
e 17 599
e 17 383
e 17 394
e 17 227
e 18 193
e 18 711
e 18 327
e 19 896
e 19 403
e 19 289
e 19 332
e 19 181
e 19 702
e 19 396
e 20 865
e 20 523
e 20 390
e 20 147
e 20 336
e 22 436
e 22 740
e 22 932
e 22 444
e 22 699
e 23 636
e 23 401
e 23 762
e 23 117
e 23 404
e 25 203
e 25 448
e 25 457
e 25 695
e 25 305
e 25 260
e 27 513
e 27 659
e 27 677
e 28 72
e 28 258
e 28 320
e 30 208
e 30 646
e 30 655
e 30 611
e 30 78
e 30 915
e 30 974
e 30 778
e 31 586
e 31 170
e 31 917
e 32 158
e 32 794
e 32 130
e 32 393
e 34 86
e 34 460
e 34 304
e 35 533
e 35 701
e 35 865
e 35 103
e 35 445
e 35 696
e 36 113
e 36 520
e 36 534
e 36 835
e 36 670
e 37 254
e 37 717
e 37 917
e 37 462
e 39 577
e 39 140
e 39 433
e 40 683
e 40 160
e 40 313
e 40 234
e 40 291
e 40 240
e 41 718
e 41 795
e 41 729
e 41 863
e 41 598
e 41 434
e 42 240
e 42 597
e 42 432
e 42 122
e 42 636
e 42 332
e 45 637
e 45 936
e 45 63
e 45 665
e 45 426
e 45 782
e 45 824
e 46 867
e 46 216
e 46 466
e 46 133
e 47 107
e 47 631
e 47 491
e 47 77
e 47 881
e 48 769
e 48 843
e 48 728
e 48 857
e 48 907
e 50 466
e 50 62
e 50 314
e 50 116
e 50 834
e 50 280
e 51 511
e 51 587
e 51 433
e 52 274
e 52 918
e 52 505
e 52 983
e 53 100
e 53 494
e 53 216
e 53 929
e 53 204
e 53 226
e 54 922
e 54 534
e 54 344
e 56 743
e 56 648
e 56 208
e 56 778
e 57 115
e 57 942
e 57 206
e 57 703
e 57 400
e 58 912
e 58 539
e 58 819
e 59 334
e 59 898
e 59 483
e 60 240
e 60 602
e 60 788
e 60 758
e 60 746
e 61 259
e 61 591
e 61 741
e 61 650
e 62 820
e 62 482
e 62 573
e 62 990
e 63 452
e 63 358
e 63 146
e 64 537
e 64 131
e 64 700
e 64 784
e 64 238
e 64 979
e 65 965
e 65 100
e 65 640
e 66 865
e 66 316
e 66 648
e 66 419
e 67 145
e 67 877
e 67 568
e 67 383
e 69 365
e 69 870
e 69 349
e 69 982
e 72 432
e 72 111
e 72 531
e 72 401
e 73 104
e 73 921
e 73 226
e 73 246
e 73 460
e 73 88
e 73 322
e 74 464
e 74 187
e 74 813
e 74 451
e 74 894
e 76 624
e 76 185
e 76 646
e 76 838
e 76 435
e 77 110
e 77 877
e 77 161
e 78 992
e 78 700
e 79 646
e 79 342
e 79 697
e 80 418
e 80 727
e 80 360
e 80 669
e 80 496
e 81 979
e 81 531
e 81 757
e 81 510
e 81 104
e 81 673
e 81 991
e 85 889
e 85 422
e 85 480
e 85 482
e 85 658
e 85 840
e 86 431
e 86 720
e 86 975
e 86 509
e 86 843
e 87 329
e 87 821
e 87 176
e 88 297
e 88 929
e 89 385
e 89 181
e 89 197
e 89 987
e 89 350
e 91 333
e 91 205
e 91 413
e 93 478
e 93 800
e 93 603
e 93 624
e 93 190
e 93 402
e 93 95
e 93 103
e 95 500
e 95 658
e 95 123
e 95 138
e 96 300
e 96 813
e 96 168
e 96 492
e 97 878
e 97 380
e 97 248
e 97 212
e 98 371
e 98 623
e 98 520
e 99 748
e 99 772
e 99 786
e 100 883
e 100 909
e 100 185
e 100 715
e 100 973
e 101 821
e 101 947
e 101 824
e 101 390
e 102 992
e 102 917
e 102 308
e 102 117
e 103 121
e 103 623
e 103 194
e 103 385
e 103 583
e 103 140
e 104 418
e 104 457
e 104 586
e 105 516
e 105 308
e 105 671
e 105 794
e 105 995
e 105 973
e 106 123
e 106 590
e 106 906
e 106 952
e 106 965
e 106 844
e 107 879
e 107 508
e 107 637
e 107 859
e 107 644
e 108 419
e 108 619
e 108 697
e 108 937
e 109 390
e 109 193
e 109 337
e 109 684
e 109 611
e 109 654
e 110 502
e 110 917
e 110 779
e 111 866
e 111 979
e 111 706
e 111 788
e 111 133
e 111 875
e 113 495
e 113 478
e 113 800
e 113 802
e 115 173
e 115 581
e 115 211
e 115 381
e 116 370
e 116 729
e 116 982
e 116 940
e 116 320
e 116 369
e 117 982
e 117 466
e 118 251
e 118 777
e 118 684
e 119 764
e 119 758
e 119 258
e 119 611
e 121 139
e 121 422
e 121 889
e 121 461
e 121 467
e 122 387
e 122 653
e 122 892
e 123 696
e 123 146
e 123 565
e 124 178
e 124 679
e 124 546
e 124 435
e 125 676
e 125 214
e 125 343
e 125 834
e 126 280
e 126 995
e 126 369
e 128 295
e 128 727
e 128 162
e 129 336
e 129 888
e 129 150
e 129 786
e 130 222
e 130 591
e 130 845
e 131 249
e 131 408
e 131 447
e 131 308
e 132 137
e 132 978
e 132 938
e 133 171
e 133 431
e 133 693
e 137 529
e 137 158
e 137 829
e 137 141
e 137 306
e 137 909
e 137 942
e 137 980
e 138 352
e 138 838
e 138 351
e 138 515
e 139 856
e 139 721
e 140 327
e 140 946
e 140 406
e 140 932
e 140 454
e 140 586
e 140 146
e 140 400
e 141 522
e 141 251
e 141 348
e 141 198
e 141 204
e 141 987
e 142 228
e 142 326
e 142 349
e 142 638
e 142 603
e 142 533
e 142 513
e 142 960
e 143 564
e 143 156
e 143 189
e 143 231
e 144 355
e 144 208
e 144 570
e 145 147
e 145 564
e 146 927
e 146 464
e 147 710
e 147 696
e 147 827
e 147 978
e 148 769
e 148 352
e 148 535
e 149 333
e 149 715
e 149 389
e 150 834
e 150 677
e 153 289
e 153 570
e 153 510
e 154 740
e 154 603
e 154 604
e 154 566
e 154 786
e 156 500
e 156 762
e 156 777
e 158 988
e 158 973
e 158 334
e 158 479
e 160 414
e 160 565
e 160 879
e 160 429
e 160 677
e 161 765
e 161 930
e 161 790
e 161 168
e 161 326
e 161 581
e 162 902
e 162 748
e 162 481
e 164 683
e 164 593
e 164 258
e 164 335
e 164 254
e 164 1000
e 165 565
e 165 788
e 165 418
e 168 773
e 168 408
e 168 250
e 168 378
e 170 662
e 170 403
e 170 940
e 170 916
e 171 787
e 171 916
e 171 927
e 173 677
e 173 911
e 173 685
e 173 844
e 175 229
e 175 455
e 175 874
e 176 399
e 176 848
e 176 378
e 176 628
e 176 676
e 177 968
e 177 488
e 177 621
e 178 930
e 178 342
e 178 224
e 179 718
e 179 299
e 179 217
e 179 777
e 179 271
e 181 851
e 181 399
e 181 874
e 181 383
e 182 429
e 182 856
e 183 529
e 183 463
e 183 508
e 183 278
e 183 206
e 183 775
e 183 204
e 184 556
e 184 767
e 184 292
e 184 645
e 184 214
e 185 386
e 185 469
e 185 924
e 187 398
e 187 210
e 188 263
e 188 218
e 188 769
e 189 921
e 189 563
e 189 409
e 190 971
e 190 599
e 191 720
e 191 194
e 191 806
e 191 926
e 191 879
e 192 399
e 192 790
e 192 980
e 193 479
e 193 690
e 193 333
e 193 338
e 194 598
e 197 212
e 197 286
e 198 237
e 198 878
e 198 423
e 198 289
e 198 295
e 200 804
e 200 279
e 200 654
e 200 992
e 200 921
e 202 397
e 202 659
e 202 968
e 202 727
e 202 239
e 203 723
e 203 676
e 204 320
e 204 633
e 204 208
e 204 829
e 204 305
e 205 451
e 205 734
e 205 522
e 205 950
e 205 330
e 206 836
e 206 225
e 206 612
e 206 736
e 206 624
e 206 539
e 206 996
e 208 557
e 208 649
e 210 874
e 210 928
e 210 248
e 211 467
e 211 881
e 211 529
e 212 949
e 212 944
e 212 406
e 212 763
e 213 849
e 213 695
e 213 812
e 213 854
e 214 241
e 214 947
e 214 870
e 215 235
e 215 434
e 215 388
e 216 948
e 216 993
e 216 219
e 217 352
e 217 725
e 218 996
e 218 840
e 219 441
e 219 876
e 219 741
e 222 875
e 222 432
e 222 688
e 224 745
e 224 731
e 224 618
e 224 820
e 224 965
e 225 848
e 225 440
e 225 864
e 226 380
e 226 775
e 226 535
e 226 892
e 227 893
e 227 990
e 227 675
e 227 689
e 228 832
e 228 493
e 228 597
e 228 551
e 228 816
e 228 751
e 228 532
e 229 971
e 229 287
e 230 939
e 230 683
e 230 989
e 231 675
e 231 461
e 231 853
e 231 789
e 232 683
e 232 882
e 232 411
e 232 633
e 234 699
e 234 488
e 234 426
e 235 962
e 235 723
e 235 270
e 236 472
e 236 608
e 236 854
e 236 338
e 236 826
e 236 621
e 237 826
e 237 397
e 237 632
e 238 916
e 238 292
e 238 724
e 239 358
e 239 473
e 239 433
e 239 786
e 240 978
e 241 941
e 241 646
e 246 595
e 246 897
e 247 371
e 247 463
e 247 373
e 247 326
e 248 604
e 249 263
e 249 495
e 249 368
e 250 432
e 250 638
e 251 336
e 251 812
e 252 265
e 252 825
e 252 878
e 252 479
e 253 574
e 253 595
e 253 364
e 254 812
e 254 944
e 254 757
e 254 875
e 255 446
e 255 638
e 255 901
e 255 393
e 258 454
e 259 618
e 259 671
e 259 297
e 259 843
e 259 425
e 260 375
e 260 883
e 260 409
e 260 589
e 260 361
e 260 499
e 261 749
e 261 439
e 261 773
e 261 843
e 261 551
e 262 979
e 262 499
e 262 743
e 262 291
e 263 923
e 263 504
e 263 521
e 263 814
e 263 420
e 265 477
e 265 725
e 265 525
e 266 894
e 266 707
e 266 342
e 268 856
e 268 826
e 268 938
e 268 432
e 269 983
e 269 987
e 269 480
e 270 780
e 270 835
e 270 460
e 270 436
e 271 273
e 271 445
e 273 742
e 273 710
e 273 758
e 274 802
e 274 965
e 274 734
e 275 412
e 275 481
e 275 439
e 276 980
e 276 363
e 276 838
e 277 657
e 277 706
e 277 436
e 278 454
e 278 700
e 279 712
e 279 741
e 279 942
e 279 797
e 279 484
e 280 911
e 280 619
e 280 529
e 280 711
e 283 782
e 283 754
e 286 945
e 286 679
e 286 633
e 287 908
e 287 863
e 287 530
e 288 968
e 288 986
e 288 334
e 288 338
e 289 869
e 289 466
e 289 875
e 291 368
e 291 734
e 291 878
e 292 345
e 292 930
e 292 937
e 293 566
e 293 895
e 293 307
e 293 730
e 294 777
e 294 595
e 294 367
e 294 821
e 295 969
e 295 864
e 295 410
e 296 681
e 296 931
e 296 769
e 297 470
e 297 316
e 297 767
e 299 525
e 299 902
e 300 681
e 300 566
e 300 863
e 301 325
e 301 936
e 304 529
e 304 949
e 304 679
e 304 894
e 304 734
e 305 683
e 305 402
e 306 497
e 306 929
e 306 752
e 306 598
e 307 771
e 307 940
e 307 586
e 308 690
e 310 986
e 310 564
e 310 810
e 310 536
e 313 761
e 313 993
e 314 371
e 314 820
e 314 456
e 314 364
e 316 623
e 317 997
e 317 468
e 317 819
e 319 338
e 319 587
e 320 810
e 322 344
e 322 769
e 322 765
e 322 444
e 322 456
e 323 587
e 323 748
e 323 964
e 323 947
e 324 793
e 324 454
e 324 778
e 325 432
e 325 583
e 326 446
e 326 538
e 326 820
e 326 906
e 327 703
e 327 633
e 327 999
e 327 487
e 327 964
e 327 575
e 329 918
e 329 465
e 329 443
e 329 949
e 329 675
e 329 490
e 330 839
e 330 703
e 331 915
e 331 964
e 331 386
e 331 794
e 331 961
e 332 923
e 332 944
e 332 652
e 333 380
e 333 701
e 333 689
e 333 852
e 333 502
e 333 931
e 334 338
e 335 929
e 335 594
e 335 893
e 336 748
e 336 847
e 336 470
e 337 938
e 337 830
e 337 565
e 337 454
e 337 400
e 337 544
e 338 493
e 338 393
e 338 794
e 339 778
e 339 399
e 339 586
e 339 706
e 342 715
e 342 624
e 342 666
e 342 635
e 343 537
e 343 358
e 343 589
e 343 652
e 344 930
e 344 706
e 344 502
e 345 388
e 345 710
e 348 826
e 348 409
e 348 549
e 348 556
e 348 962
e 349 514
e 349 481
e 350 541
e 350 769
e 351 867
e 351 614
e 352 743
e 352 444
e 352 411
e 352 845
e 352 483
e 352 689
e 352 628
e 352 594
e 355 757
e 355 855
e 355 511
e 355 425
e 358 420
e 358 422
e 359 699
e 359 854
e 359 876
e 359 859
e 360 761
e 360 396
e 360 864
e 361 895
e 361 776
e 363 485
e 363 640
e 364 700
e 364 811
e 364 894
e 364 643
e 365 497
e 365 539
e 365 962
e 366 377
e 366 833
e 366 697
e 367 857
e 367 654
e 368 966
e 368 670
e 369 535
e 369 907
e 369 858
e 369 464
e 370 855
e 370 921
e 370 712
e 370 591
e 370 597
e 370 897
e 371 787
e 371 969
e 373 585
e 373 838
e 373 513
e 375 532
e 375 875
e 375 922
e 376 533
e 376 378
e 376 720
e 377 581
e 377 851
e 378 509
e 378 627
e 378 871
e 378 657
e 380 533
e 381 811
e 381 858
e 383 771
e 383 519
e 383 414
e 383 915
e 383 733
e 383 655
e 385 922
e 385 477
e 386 800
e 386 752
e 387 827
e 387 727
e 387 830
e 387 408
e 388 630
e 388 754
e 388 604
e 389 432
e 389 516
e 389 504
e 389 493
e 389 829
e 389 838
e 389 844
e 392 618
e 392 901
e 392 950
e 392 916
e 393 997
e 393 525
e 394 818
e 394 619
e 394 435
e 395 936
e 395 631
e 395 511
e 395 869
e 395 796
e 396 736
e 397 417
e 398 744
e 398 986
e 399 943
e 400 457
e 400 676
e 400 950
e 400 947
e 401 724
e 401 612
e 402 771
e 403 976
e 403 417
e 403 470
e 403 444
e 404 460
e 404 475
e 406 500
e 408 659
e 408 594
e 409 671
e 410 419
e 410 786
e 410 763
e 410 538
e 410 662
e 410 545
e 411 635
e 412 782
e 412 604
e 412 885
e 413 938
e 413 925
e 413 818
e 414 477
e 415 980
e 415 480
e 415 506
e 415 762
e 417 888
e 417 733
e 418 613
e 419 855
e 419 975
e 419 488
e 419 670
e 419 572
e 419 848
e 420 632
e 420 744
e 420 517
e 422 702
e 422 925
e 422 595
e 423 572
e 423 699
e 423 584
e 424 752
e 424 887
e 424 885
e 424 707
e 425 988
e 426 652
e 427 613
e 427 812
e 427 804
e 429 923
e 431 478
e 431 658
e 431 754
e 432 538
e 432 964
e 432 664
e 433 790
e 434 879
e 435 689
e 436 467
e 436 531
e 438 467
e 438 478
e 438 898
e 439 563
e 439 644
e 439 946
e 439 821
e 439 614
e 440 899
e 440 666
e 440 779
e 440 892
e 440 505
e 440 516
e 441 1000
e 441 771
e 441 793
e 441 835
e 441 734
e 443 535
e 443 808
e 443 497
e 443 629
e 444 801
e 445 483
e 445 871
e 445 475
e 446 465
e 447 619
e 447 477
e 448 784
e 448 647
e 448 761
e 449 824
e 449 496
e 449 697
e 451 810
e 451 854
e 451 482
e 451 773
e 452 763
e 452 559
e 455 746
e 455 939
e 455 650
e 455 641
e 455 786
e 456 497
e 456 777
e 460 648
e 460 487
e 460 849
e 460 1000
e 460 713
e 460 944
e 460 587
e 461 647
e 461 675
e 462 646
e 462 852
e 462 678
e 463 952
e 463 922
e 464 624
e 464 540
e 464 495
e 465 502
e 465 899
e 465 829
e 466 647
e 466 906
e 466 975
e 467 488
e 468 506
e 468 629
e 469 916
e 469 529
e 470 779
e 470 581
e 470 883
e 471 517
e 471 756
e 471 902
e 472 860
e 472 587
e 472 585
e 473 529
e 473 962
e 473 960
e 473 796
e 473 743
e 475 733
e 475 839
e 475 689
e 475 902
e 475 626
e 475 633
e 476 742
e 476 642
e 476 685
e 477 852
e 477 573
e 477 644
e 477 741
e 479 863
e 479 739
e 479 882
e 480 608
e 481 971
e 481 879
e 481 793
e 481 516
e 482 876
e 482 720
e 482 636
e 483 631
e 483 794
e 483 629
e 484 535
e 484 681
e 484 769
e 484 1000
e 484 673
e 484 629
e 485 535
e 485 585
e 485 804
e 487 800
e 487 790
e 488 504
e 488 1000
e 488 652
e 490 612
e 490 729
e 490 540
e 491 839
e 491 1000
e 492 696
e 492 841
e 493 726
e 493 987
e 494 952
e 494 630
e 495 979
e 496 754
e 496 743
e 496 637
e 496 774
e 496 892
e 497 571
e 499 661
e 499 541
e 499 819
e 502 769
e 504 546
e 505 789
e 505 649
e 505 997
e 505 889
e 506 832
e 506 777
e 508 523
e 508 812
e 509 938
e 510 572
e 510 731
e 511 564
e 512 693
e 512 844
e 512 993
e 513 739
e 514 759
e 514 999
e 515 786
e 515 801
e 517 649
e 517 713
e 518 716
e 518 820
e 518 930
e 519 617
e 519 784
e 520 894
e 520 676
e 520 996
e 521 867
e 521 693
e 522 726
e 522 703
e 522 769
e 523 749
e 523 945
e 523 630
e 523 775
e 525 587
e 529 859
e 529 855
e 529 696
e 529 844
e 530 945
e 530 986
e 531 939
e 531 824
e 531 666
e 531 813
e 532 888
e 532 986
e 532 672
e 533 761
e 533 954
e 533 752
e 534 539
e 534 925
e 535 614
e 536 973
e 536 762
e 537 762
e 538 573
e 539 974
e 540 866
e 541 761
e 541 706
e 544 647
e 544 949
e 545 745
e 545 717
e 546 1000
e 546 887
e 549 658
e 549 907
e 551 593
e 554 710
e 554 726
e 554 990
e 554 933
e 556 811
e 557 869
e 557 944
e 557 676
e 557 804
e 559 876
e 559 736
e 559 745
e 563 665
e 563 671
e 565 813
e 566 679
e 568 951
e 568 954
e 568 966
e 570 836
e 570 919
e 571 999
e 571 710
e 571 641
e 572 796
e 572 742
e 572 611
e 573 815
e 573 902
e 573 976
e 573 794
e 574 787
e 574 628
e 574 860
e 574 736
e 575 937
e 575 748
e 577 773
e 577 912
e 577 839
e 581 896
e 581 809
e 581 802
e 581 769
e 582 600
e 582 723
e 582 711
e 582 733
e 583 764
e 584 830
e 584 975
e 584 938
e 585 974
e 585 813
e 586 593
e 586 720
e 586 730
e 587 640
e 589 604
e 589 936
e 589 898
e 590 749
e 590 647
e 593 771
e 593 870
e 593 865
e 594 830
e 595 941
e 597 677
e 597 661
e 597 876
e 598 629
e 598 665
e 599 754
e 599 816
e 599 693
e 599 648
e 600 848
e 600 659
e 602 847
e 602 819
e 603 996
e 604 936
e 608 809
e 608 647
e 613 797
e 614 849
e 614 866
e 614 989
e 617 796
e 617 659
e 619 864
e 619 761
e 619 851
e 621 850
e 623 626
e 623 987
e 623 631
e 623 816
e 623 991
e 624 825
e 624 966
e 625 905
e 625 928
e 626 947
e 626 832
e 626 820
e 627 773
e 627 836
e 628 827
e 628 731
e 628 677
e 628 794
e 629 950
e 630 871
e 630 701
e 630 952
e 631 993
e 631 927
e 632 884
e 633 660
e 633 926
e 635 716
e 636 941
e 636 928
e 638 897
e 640 922
e 641 875
e 642 963
e 642 991
e 643 1000
e 643 716
e 644 669
e 644 700
e 645 795
e 645 696
e 645 712
e 646 847
e 647 931
e 647 917
e 647 963
e 649 650
e 649 652
e 649 830
e 650 922
e 652 774
e 653 973
e 653 942
e 653 856
e 654 911
e 655 658
e 655 837
e 655 742
e 657 961
e 658 952
e 659 809
e 659 884
e 660 715
e 660 768
e 660 723
e 660 827
e 660 996
e 661 717
e 661 744
e 664 899
e 664 734
e 665 962
e 665 841
e 666 836
e 666 932
e 666 780
e 669 713
e 669 878
e 670 838
e 670 946
e 671 850
e 672 941
e 672 905
e 672 974
e 673 909
e 673 860
e 675 943
e 675 964
e 675 853
e 676 978
e 676 899
e 676 909
e 677 806
e 678 808
e 678 951
e 679 915
e 679 908
e 681 849
e 681 697
e 683 815
e 683 819
e 683 768
e 684 706
e 684 715
e 685 814
e 688 811
e 688 831
e 689 748
e 689 968
e 689 728
e 689 907
e 690 813
e 690 840
e 690 806
e 693 768
e 693 905
e 695 776
e 695 988
e 696 944
e 697 896
e 700 780
e 700 739
e 701 830
e 701 721
e 701 779
e 702 995
e 703 799
e 703 739
e 703 993
e 707 856
e 707 989
e 707 867
e 710 943
e 710 746
e 711 801
e 712 921
e 712 869
e 712 987
e 716 816
e 717 863
e 718 917
e 721 825
e 723 917
e 724 762
e 725 806
e 725 837
e 726 793
e 728 814
e 728 765
e 729 804
e 730 850
e 730 767
e 731 919
e 733 887
e 740 743
e 741 824
e 742 756
e 743 933
e 743 865
e 745 993
e 751 944
e 751 933
e 751 772
e 751 952
e 756 941
e 756 961
e 756 870
e 757 818
e 757 859
e 759 790
e 759 973
e 763 780
e 763 776
e 764 893
e 764 874
e 767 833
e 767 771
e 768 987
e 769 918
e 769 980
e 772 966
e 774 947
e 775 831
e 775 820
e 775 882
e 776 987
e 777 919
e 780 804
e 782 973
e 782 879
e 786 853
e 787 986
e 787 831
e 787 897
e 789 996
e 789 820
e 789 799
e 790 795
e 794 976
e 796 912
e 797 925
e 799 889
e 800 814
e 804 881
e 806 926
e 808 884
e 808 815
e 808 918
e 808 938
e 810 885
e 815 836
e 825 876
e 826 908
e 826 911
e 829 999
e 830 947
e 830 946
e 833 888
e 836 844
e 836 941
e 837 883
e 841 960
e 844 907
e 845 973
e 849 983
e 850 916
e 852 901
e 853 866
e 853 983
e 853 875
e 857 948
e 858 881
e 870 916
e 871 901
e 871 954
e 874 895
e 875 997
e 877 988
e 882 964
e 883 918
e 885 902
e 895 928
e 896 919
e 896 999
e 896 922
e 896 979
e 897 997
e 899 965
e 902 973
e 905 924
e 907 962
e 912 969
e 918 931
e 921 968
e 924 950
e 925 936
e 928 980
e 932 995
e 936 960
e 938 990
e 943 945
e 948 968
e 948 951
e 963 968
e 965 996
e 975 995
e 987 993
